60
20 26
30 42
28 84
12 84
26 69
18 5
16 79
9 8
20 94
16 79
11 55
28 58
11 40
13 56
28 93
8 16
17 37
13 99
24 76
15 74
18 69
29 24
4 93
26 20
10 5
11 33
11 30
11 28
14 83
27 63
18 93
12 96
24 86
2 54
17 27
27 58
23 4
29 46
17 68
3 86
19 66
15 35
13 61
3 67
2 98
12 69
16 59
7 75
8 9
25 10
29 6
12 81
8 51
1 62
17 94
19 43
29 17
9 5
4 43
20 23
